c Reduced graph for GEOM80b generated by Cyril Grelier
p edge 80 663
e 1 2
e 1 3
e 1 4
e 1 5
e 1 6
e 1 7
e 1 8
e 1 9
e 1 10
e 1 14
e 1 18
e 1 30
e 1 31
e 1 32
e 1 33
e 1 34
e 1 36
e 1 37
e 1 38
e 1 44
e 1 61
e 1 62
e 1 63
e 1 64
e 1 65
e 1 68
e 1 69
e 1 70
e 1 76
e 2 3
e 2 7
e 2 8
e 2 11
e 2 15
e 2 16
e 2 17
e 2 22
e 2 30
e 2 31
e 2 32
e 2 33
e 2 34
e 2 40
e 2 49
e 2 62
e 2 64
e 2 67
e 2 68
e 2 69
e 2 70
e 2 72
e 2 74
e 2 75
e 3 4
e 3 6
e 3 7
e 3 8
e 3 10
e 3 14
e 3 30
e 3 31
e 3 32
e 3 33
e 3 34
e 3 36
e 3 61
e 3 62
e 3 64
e 3 65
e 3 67
e 3 68
e 3 69
e 3 70
e 3 72
e 3 74
e 3 75
e 4 6
e 4 9
e 4 10
e 4 14
e 4 18
e 4 20
e 4 26
e 4 30
e 4 36
e 4 37
e 4 38
e 4 39
e 4 44
e 4 47
e 4 50
e 4 53
e 4 63
e 4 65
e 4 76
e 4 77
e 4 78
e 5 9
e 5 13
e 5 18
e 5 27
e 5 30
e 5 31
e 5 32
e 5 33
e 5 35
e 5 37
e 5 38
e 5 41
e 5 46
e 5 48
e 5 52
e 5 61
e 5 62
e 5 63
e 5 66
e 5 71
e 5 73
e 5 77
e 6 8
e 6 9
e 6 10
e 6 14
e 6 20
e 6 26
e 6 30
e 6 31
e 6 32
e 6 36
e 6 37
e 6 38
e 6 39
e 6 44
e 6 47
e 6 50
e 6 63
e 6 65
e 6 76
e 7 8
e 7 11
e 7 14
e 7 15
e 7 17
e 7 22
e 7 25
e 7 31
e 7 32
e 7 34
e 7 49
e 7 64
e 7 67
e 7 68
e 7 69
e 7 70
e 7 72
e 7 74
e 7 75
e 8 30
e 8 31
e 8 32
e 8 33
e 8 34
e 8 40
e 8 61
e 8 62
e 8 64
e 8 65
e 8 66
e 8 67
e 8 68
e 8 69
e 8 70
e 8 71
e 8 72
e 9 13
e 9 18
e 9 27
e 9 30
e 9 31
e 9 32
e 9 37
e 9 38
e 9 39
e 9 41
e 9 61
e 9 63
e 9 65
e 9 71
e 9 77
e 10 14
e 10 20
e 10 26
e 10 30
e 10 36
e 10 39
e 10 44
e 10 47
e 10 50
e 10 53
e 10 63
e 10 65
e 10 74
e 10 76
e 11 15
e 11 16
e 11 17
e 11 22
e 11 25
e 11 49
e 11 54
e 11 55
e 11 64
e 11 67
e 11 69
e 11 72
e 11 74
e 11 75
e 11 80
e 12 19
e 12 21
e 12 23
e 12 24
e 12 28
e 12 29
e 12 33
e 12 35
e 12 40
e 12 43
e 12 45
e 12 56
e 12 62
e 12 66
e 12 68
e 12 70
e 12 73
e 13 18
e 13 27
e 13 35
e 13 37
e 13 41
e 13 42
e 13 46
e 13 48
e 13 52
e 13 61
e 13 66
e 13 71
e 13 73
e 13 77
e 14 17
e 14 20
e 14 26
e 14 36
e 14 44
e 14 65
e 14 69
e 14 74
e 14 75
e 14 76
e 15 17
e 15 22
e 15 25
e 15 49
e 15 54
e 15 55
e 15 64
e 15 67
e 15 69
e 15 72
e 15 74
e 15 75
e 15 80
e 16 22
e 16 29
e 16 34
e 16 40
e 16 43
e 16 49
e 16 57
e 16 60
e 16 64
e 16 67
e 16 68
e 16 70
e 16 72
e 17 25
e 17 44
e 17 54
e 17 55
e 17 64
e 17 67
e 17 69
e 17 72
e 17 74
e 17 75
e 18 27
e 18 30
e 18 37
e 18 38
e 18 39
e 18 61
e 18 63
e 18 65
e 18 71
e 18 77
e 19 21
e 19 23
e 19 24
e 19 28
e 19 29
e 19 35
e 19 40
e 19 42
e 19 43
e 19 45
e 19 51
e 19 56
e 19 66
e 19 73
e 20 26
e 20 36
e 20 39
e 20 44
e 20 47
e 20 50
e 20 53
e 20 63
e 20 65
e 20 76
e 20 78
e 21 23
e 21 24
e 21 28
e 21 29
e 21 35
e 21 40
e 21 43
e 21 45
e 21 56
e 21 62
e 21 66
e 21 68
e 21 79
e 22 25
e 22 49
e 22 54
e 22 55
e 22 60
e 22 64
e 22 67
e 22 69
e 22 72
e 22 80
e 23 24
e 23 28
e 23 35
e 23 41
e 23 42
e 23 45
e 23 46
e 23 48
e 23 51
e 23 56
e 23 66
e 23 73
e 24 28
e 24 35
e 24 42
e 24 45
e 24 46
e 24 48
e 24 51
e 24 56
e 24 66
e 24 73
e 25 49
e 25 54
e 25 55
e 25 67
e 25 69
e 25 72
e 25 74
e 25 75
e 25 80
e 26 36
e 26 39
e 26 44
e 26 47
e 26 50
e 26 53
e 26 63
e 26 76
e 26 78
e 27 37
e 27 38
e 27 41
e 27 52
e 27 71
e 27 73
e 27 77
e 28 29
e 28 43
e 28 45
e 28 51
e 28 56
e 29 40
e 29 43
e 29 57
e 29 58
e 29 79
e 30 31
e 30 32
e 30 33
e 30 34
e 30 36
e 30 37
e 30 38
e 30 61
e 30 62
e 30 63
e 30 65
e 30 68
e 30 70
e 30 71
e 31 32
e 31 33
e 31 34
e 31 37
e 31 61
e 31 62
e 31 63
e 31 64
e 31 65
e 31 66
e 31 67
e 31 68
e 31 69
e 31 70
e 31 71
e 32 33
e 32 34
e 32 37
e 32 61
e 32 62
e 32 63
e 32 64
e 32 65
e 32 66
e 32 67
e 32 68
e 32 69
e 32 70
e 32 71
e 33 34
e 33 35
e 33 40
e 33 41
e 33 61
e 33 62
e 33 64
e 33 65
e 33 66
e 33 68
e 33 70
e 33 71
e 33 73
e 34 40
e 34 43
e 34 49
e 34 61
e 34 62
e 34 64
e 34 67
e 34 68
e 34 69
e 34 70
e 34 72
e 35 41
e 35 42
e 35 45
e 35 46
e 35 48
e 35 51
e 35 52
e 35 61
e 35 62
e 35 66
e 35 71
e 35 73
e 36 44
e 36 47
e 36 50
e 36 53
e 36 63
e 36 65
e 36 74
e 36 75
e 36 76
e 37 38
e 37 39
e 37 61
e 37 63
e 37 65
e 37 71
e 37 77
e 38 39
e 38 47
e 38 50
e 38 53
e 38 63
e 38 65
e 38 77
e 38 78
e 39 47
e 39 50
e 39 53
e 39 63
e 39 65
e 39 77
e 39 78
e 40 43
e 40 45
e 40 62
e 40 64
e 40 68
e 40 70
e 40 79
e 41 42
e 41 46
e 41 48
e 41 52
e 41 61
e 41 62
e 41 66
e 41 71
e 41 73
e 42 45
e 42 46
e 42 48
e 42 51
e 42 52
e 42 59
e 42 66
e 42 71
e 42 73
e 43 45
e 43 57
e 43 58
e 43 62
e 43 68
e 43 70
e 43 79
e 44 47
e 44 50
e 44 65
e 44 74
e 44 75
e 44 76
e 45 46
e 45 51
e 45 56
e 45 66
e 45 73
e 46 48
e 46 51
e 46 52
e 46 59
e 46 66
e 46 71
e 46 73
e 47 50
e 47 53
e 47 63
e 47 65
e 47 76
e 47 78
e 48 51
e 48 52
e 48 59
e 48 66
e 48 71
e 48 73
e 49 55
e 49 60
e 49 64
e 49 67
e 49 69
e 49 72
e 50 53
e 50 63
e 50 76
e 50 78
e 51 56
e 51 59
e 51 66
e 51 73
e 52 59
e 52 66
e 52 71
e 52 73
e 53 63
e 53 78
e 54 55
e 54 72
e 54 74
e 54 75
e 54 80
e 55 67
e 55 72
e 55 80
e 57 58
e 57 60
e 57 79
e 58 60
e 58 79
e 61 62
e 61 63
e 61 65
e 61 66
e 61 68
e 61 70
e 61 71
e 61 73
e 61 77
e 62 64
e 62 66
e 62 67
e 62 68
e 62 70
e 62 71
e 62 73
e 63 65
e 63 77
e 63 78
e 64 67
e 64 68
e 64 69
e 64 70
e 64 72
e 64 74
e 65 76
e 66 71
e 66 73
e 67 68
e 67 69
e 67 70
e 67 72
e 67 74
e 67 75
e 68 69
e 68 70
e 68 72
e 69 70
e 69 72
e 69 74
e 69 75
e 70 72
e 71 73
e 72 74
e 72 75
e 74 75
e 74 76
e 75 76
